c "989436.clq"
p edge 200 784
e 1 5
e 1 6
e 1 23
e 1 48
e 1 54
e 1 65
e 1 84
e 1 106
e 1 174
e 2 5
e 2 71
e 2 96
e 2 121
e 2 122
e 2 140
e 2 160
e 2 172
e 3 5
e 3 6
e 3 7
e 3 8
e 3 9
e 3 10
e 3 12
e 3 13
e 3 15
e 3 16
e 3 21
e 3 22
e 3 23
e 3 24
e 3 25
e 3 32
e 3 42
e 3 47
e 3 50
e 3 57
e 3 60
e 3 61
e 3 63
e 3 68
e 3 69
e 3 83
e 3 91
e 3 96
e 3 103
e 3 107
e 3 111
e 3 112
e 3 113
e 3 123
e 3 134
e 3 144
e 3 158
e 3 165
e 3 170
e 3 176
e 3 178
e 3 182
e 3 185
e 3 189
e 4 5
e 4 6
e 4 7
e 4 8
e 4 10
e 4 13
e 4 14
e 4 16
e 4 17
e 4 20
e 4 28
e 4 38
e 4 40
e 4 41
e 4 44
e 4 46
e 4 49
e 4 54
e 4 61
e 4 74
e 4 87
e 4 102
e 4 104
e 4 112
e 4 116
e 4 125
e 4 132
e 4 157
e 4 169
e 4 184
e 5 6
e 5 7
e 5 8
e 5 9
e 5 10
e 5 11
e 5 12
e 5 13
e 5 17
e 5 21
e 5 24
e 5 26
e 5 27
e 5 29
e 5 31
e 5 33
e 5 34
e 5 35
e 5 37
e 5 39
e 5 45
e 5 47
e 5 48
e 5 51
e 5 58
e 5 59
e 5 67
e 5 69
e 5 75
e 5 79
e 5 94
e 5 95
e 5 97
e 5 99
e 5 111
e 5 131
e 5 133
e 5 138
e 5 141
e 5 152
e 5 154
e 5 164
e 5 165
e 5 176
e 5 186
e 5 191
e 6 7
e 6 8
e 6 9
e 6 10
e 6 19
e 6 36
e 6 48
e 6 54
e 6 81
e 6 84
e 6 93
e 6 98
e 6 124
e 6 125
e 6 126
e 6 130
e 6 143
e 6 144
e 6 160
e 6 162
e 6 173
e 6 189
e 6 193
e 7 9
e 7 11
e 7 14
e 7 17
e 7 23
e 7 27
e 7 28
e 7 45
e 7 47
e 7 50
e 7 51
e 7 54
e 7 57
e 7 59
e 7 65
e 7 76
e 7 84
e 7 85
e 7 99
e 7 133
e 7 149
e 7 154
e 7 170
e 8 16
e 8 25
e 8 26
e 8 27
e 8 37
e 8 52
e 8 80
e 8 84
e 8 133
e 8 135
e 8 164
e 9 11
e 9 12
e 9 14
e 9 15
e 9 19
e 9 22
e 9 32
e 9 33
e 9 35
e 9 56
e 9 58
e 9 66
e 9 71
e 9 82
e 9 91
e 9 94
e 9 118
e 9 127
e 9 129
e 9 131
e 9 145
e 9 156
e 9 159
e 9 161
e 9 167
e 9 169
e 9 179
e 10 11
e 10 12
e 10 15
e 10 25
e 10 29
e 10 32
e 10 37
e 10 44
e 10 48
e 10 53
e 10 56
e 10 60
e 10 65
e 10 71
e 10 72
e 10 95
e 10 100
e 10 109
e 10 129
e 10 172
e 10 178
e 10 182
e 12 13
e 12 14
e 12 16
e 12 18
e 12 20
e 12 25
e 12 26
e 12 30
e 12 34
e 12 36
e 12 39
e 12 43
e 12 50
e 12 55
e 12 58
e 12 62
e 12 77
e 12 81
e 12 92
e 12 94
e 12 97
e 12 108
e 12 110
e 12 141
e 12 148
e 12 168
e 12 172
e 12 183
e 12 187
e 12 188
e 13 17
e 13 19
e 13 39
e 13 59
e 13 70
e 13 86
e 13 97
e 13 139
e 13 166
e 13 196
e 14 15
e 14 19
e 14 20
e 14 22
e 14 27
e 14 30
e 14 37
e 14 38
e 14 40
e 14 41
e 14 42
e 14 44
e 14 46
e 14 51
e 14 75
e 14 77
e 14 78
e 14 93
e 14 112
e 14 117
e 14 124
e 14 148
e 14 158
e 14 160
e 14 173
e 15 18
e 15 28
e 15 35
e 15 51
e 15 66
e 15 72
e 15 83
e 15 99
e 15 128
e 15 154
e 15 184
e 15 188
e 16 18
e 16 20
e 16 21
e 16 34
e 16 38
e 16 40
e 16 41
e 16 42
e 16 63
e 16 78
e 16 79
e 16 86
e 16 100
e 16 113
e 16 117
e 16 137
e 16 151
e 16 155
e 16 174
e 16 193
e 17 18
e 17 21
e 17 28
e 17 29
e 17 30
e 17 33
e 17 36
e 17 50
e 17 55
e 17 89
e 17 91
e 17 111
e 17 114
e 17 120
e 17 127
e 17 137
e 17 142
e 17 150
e 17 152
e 17 153
e 17 179
e 17 192
e 17 196
e 18 24
e 18 29
e 18 70
e 18 98
e 18 130
e 18 167
e 19 34
e 19 74
e 19 96
e 19 101
e 19 134
e 19 180
e 20 31
e 20 39
e 20 44
e 20 57
e 20 61
e 20 66
e 20 68
e 20 77
e 20 95
e 20 132
e 20 175
e 20 182
e 20 183
e 21 22
e 21 31
e 21 55
e 21 73
e 21 76
e 21 88
e 21 90
e 21 93
e 21 114
e 21 164
e 21 170
e 21 181
e 21 195
e 22 23
e 22 24
e 22 55
e 22 56
e 22 60
e 22 67
e 22 71
e 22 92
e 22 108
e 22 109
e 22 138
e 22 147
e 22 150
e 22 188
e 23 26
e 23 32
e 23 36
e 23 42
e 23 43
e 23 61
e 23 119
e 23 151
e 23 157
e 23 200
e 24 107
e 25 40
e 25 68
e 25 103
e 25 119
e 25 120
e 25 143
e 25 162
e 25 173
e 25 177
e 25 194
e 26 30
e 26 31
e 26 65
e 26 67
e 26 69
e 26 76
e 26 118
e 26 130
e 26 138
e 26 142
e 27 43
e 27 45
e 27 79
e 27 88
e 27 90
e 27 197
e 28 46
e 28 49
e 28 56
e 28 60
e 28 108
e 28 115
e 28 136
e 28 162
e 28 166
e 28 190
e 29 33
e 29 49
e 29 52
e 29 53
e 29 73
e 29 78
e 29 80
e 29 90
e 29 92
e 29 101
e 29 114
e 29 120
e 29 158
e 29 174
e 29 178
e 29 179
e 30 43
e 30 88
e 30 102
e 30 165
e 31 64
e 31 76
e 31 87
e 31 131
e 31 180
e 32 62
e 33 47
e 33 58
e 33 86
e 33 121
e 33 135
e 33 186
e 34 35
e 34 38
e 34 45
e 34 46
e 34 53
e 34 74
e 34 100
e 34 105
e 34 107
e 34 136
e 34 141
e 34 157
e 34 166
e 34 167
e 34 185
e 34 190
e 34 198
e 35 52
e 35 63
e 35 83
e 35 90
e 35 163
e 36 62
e 36 66
e 36 67
e 36 89
e 36 104
e 36 121
e 36 123
e 36 175
e 36 177
e 36 187
e 36 195
e 37 41
e 37 155
e 37 163
e 38 110
e 38 112
e 38 113
e 39 80
e 39 125
e 39 145
e 39 147
e 39 169
e 40 135
e 41 161
e 42 72
e 42 81
e 42 83
e 42 98
e 42 138
e 42 171
e 42 174
e 42 175
e 42 181
e 43 53
e 43 63
e 43 73
e 43 75
e 43 82
e 43 99
e 43 124
e 43 129
e 43 150
e 43 180
e 44 52
e 44 72
e 44 81
e 44 115
e 45 91
e 45 101
e 46 134
e 47 49
e 47 59
e 47 69
e 47 116
e 47 139
e 47 159
e 47 162
e 47 164
e 48 57
e 48 64
e 48 73
e 48 85
e 48 102
e 48 104
e 48 105
e 49 64
e 49 88
e 50 140
e 51 102
e 51 136
e 51 153
e 52 149
e 52 197
e 54 62
e 54 64
e 54 89
e 54 110
e 54 130
e 54 166
e 54 199
e 56 107
e 56 168
e 57 82
e 57 93
e 57 106
e 57 126
e 57 132
e 57 160
e 57 192
e 59 122
e 59 144
e 59 153
e 59 200
e 60 70
e 60 78
e 60 149
e 63 82
e 63 85
e 63 128
e 63 145
e 63 171
e 64 70
e 64 75
e 64 154
e 65 96
e 66 89
e 66 92
e 66 113
e 66 119
e 66 147
e 67 68
e 67 80
e 67 97
e 67 110
e 67 140
e 67 173
e 67 189
e 67 199
e 68 124
e 68 150
e 69 87
e 70 74
e 70 186
e 71 77
e 71 118
e 72 185
e 73 114
e 73 143
e 73 163
e 73 194
e 74 79
e 75 98
e 75 100
e 75 111
e 76 109
e 77 94
e 77 118
e 77 129
e 78 128
e 78 156
e 79 85
e 79 117
e 79 146
e 79 148
e 80 86
e 80 106
e 80 109
e 80 115
e 80 123
e 80 134
e 81 95
e 81 103
e 81 115
e 81 180
e 82 116
e 83 104
e 85 87
e 85 156
e 85 159
e 85 190
e 85 192
e 85 195
e 85 196
e 85 197
e 86 106
e 86 146
e 86 159
e 87 151
e 87 177
e 87 194
e 88 105
e 88 120
e 88 187
e 88 191
e 89 121
e 89 153
e 90 168
e 90 172
e 91 122
e 91 144
e 92 103
e 92 170
e 93 116
e 93 152
e 93 193
e 94 131
e 94 181
e 95 135
e 95 200
e 96 101
e 97 119
e 97 163
e 97 195
e 98 171
e 99 108
e 99 117
e 99 152
e 99 181
e 99 183
e 100 198
e 101 165
e 101 167
e 102 126
e 102 128
e 102 155
e 102 197
e 103 168
e 103 176
e 104 105
e 104 122
e 104 132
e 104 139
e 104 146
e 105 139
e 105 171
e 105 175
e 108 125
e 108 184
e 108 199
e 109 126
e 109 133
e 111 185
e 113 127
e 114 127
e 114 161
e 114 183
e 114 191
e 116 176
e 116 189
e 117 123
e 117 137
e 119 137
e 119 147
e 119 158
e 120 141
e 121 178
e 122 140
e 124 155
e 125 136
e 125 142
e 125 188
e 126 190
e 126 194
e 129 145
e 129 192
e 130 149
e 130 169
e 132 179
e 134 142
e 134 200
e 135 161
e 136 151
e 136 196
e 139 143
e 139 146
e 141 148
e 144 187
e 145 157
e 147 156
e 147 182
e 147 198
e 152 193
e 155 199
e 163 184
e 169 177
e 173 198
e 176 186
e 177 191
